\ Generated by MPModelProtoExporter
\   Name             : 
\   Format           : Free
\   Constraints      : 5
\   Variables        : 4
\     Binary         : 4
\     Integer        : 0
\     Continuous     : 0
Maximize
 Obj: +9 x0 +5 x1 +6 x2 +4 x3 
Subject to
 auto_c_000000000: +1 x0 +1 x1  >= 1
 auto_c_000000001: +1 x0 -1 x2  >= 0
 auto_c_000000002: +1 x1 -1 x3  >= 0
 auto_c_000000003: +1 x2 +1 x3  = 1
 auto_c_000000004: +6 x0 +3 x1 +5 x2 +2 x3  <= 11
Bounds
 0 <= x0 <= 1
 0 <= x1 <= 1
 0 <= x2 <= 1
 0 <= x3 <= 1
Binaries
 x0
 x1
 x2
 x3
End
